============================[ Problem Statistics ]=============================|                                                                             ||  Number of variables:          4242                                         ||  Number of clauses:           10371                                         ||  Parse time:                   0.75 s                                       ||                                                                             |============================[ Search Statistics ]==============================| Conflicts |          ORIGINAL         |          LEARNT          | Progress ||           |    Vars  Clauses Literals |    Limit  Clauses Lit/Cl |          |===============================================================================|       100 |    1591     6576  1209817 |     2411      100     53 | 62.501 % ||       250 |    1591     6576  1209817 |     2652      250     75 | 62.495 % |===============================================================================restarts              : 4conflicts             : 410            (355 /sec)decisions             : 771            (0.00 % random) (667 /sec)propagations          : 13665          (11821 /sec)conflict literals     : 34171          (94.53 % deleted)CPU time              : 1.156 sSATISFIABLE